(set-logic ALL)
(declare-fun i1 () Int)
(declare-fun it445 () Int)
(declare-fun it446 () Int)
(declare-fun i2 () Int)
(declare-fun i3 () Int)
(declare-fun it447 () Int)
(declare-fun i4 () Int)
(declare-fun it448 () Int)
(declare-fun it449 () Int)
(declare-fun i5 () Int)
(declare-fun i6 () Int)
(declare-fun it450 () Int)
(declare-fun i7 () Int)
(declare-fun it451 () Int)
(declare-fun it452 () Int)
(declare-fun it453 () Int)
(declare-fun it454 () Int)
(declare-fun it455 () Int)
(declare-fun it456 () Int)
(declare-fun it457 () Int)
(declare-fun it458 () Int)
(declare-fun it459 () Int)
(declare-fun it460 () Int)
(declare-fun it461 () Int)
(declare-fun it462 () Int)
(declare-fun it463 () Int)
(declare-fun it464 () Int)
(declare-fun it465 () Int)
(declare-fun it466 () Int)
(declare-fun it467 () Int)
(declare-fun it468 () Int)
(declare-fun it469 () Int)
(declare-fun it470 () Int)
(declare-fun it471 () Int)
(declare-fun it472 () Int)
(declare-fun it562 () Int)
(declare-fun it563 () Int)
(declare-fun it564 () Int)
(declare-fun it565 () Int)
(declare-fun it566 () Int)
(declare-fun it567 () Int)
(declare-fun it568 () Int)
(declare-fun it569 () Int)
(declare-fun it570 () Int)
(declare-fun it571 () Int)
(declare-fun it572 () Int)
(declare-fun it573 () Int)
(declare-fun it574 () Int)
(declare-fun it575 () Int)
(declare-fun it576 () Int)
(declare-fun it577 () Int)
(declare-fun it578 () Int)
(declare-fun it579 () Int)
(declare-fun it580 () Int)
(declare-fun it581 () Int)
(declare-fun it582 () Int)
(declare-fun it316 () Int)
(assert (= (+ i1 (- 1)) 0))
(assert (= (+ it445 (- 5)) 0))
(assert (= (+ (* i2 (- 1)) it446 (- 4)) 0))
(assert (= (+ it447 (* i3 (- 1))) 0))
(assert (= (+ it448 (* i4 (- 1))) 0))
(assert (= (+ (* i5 (- 1)) it449) 0))
(assert (= (+ it450 (* i6 (- 1))) 0))
(assert (= (+ it451 (* i7 (- 1))) 0))
(assert (and (> (+ it448 (- 2)) 0) (= (+ it445 (- 5)) 0)))
(assert (= (+ it452 (- 18)) 0))
(assert (= (+ it453 (* it446 (- 1)) (- 12)) 0))
(assert (= (+ (* it447 (- 1)) it454) 0))
(assert (= (+ (* it448 (- 1)) it455) 0))
(assert (= (+ it456 (* it449 (- 1))) 0))
(assert (= it457 0))
(assert (= (+ (* it451 (- 1)) it458) 0))
(assert (and (<= (+ it457 (* it455 (- 1)) 2) 0) (= (+ it452 (- 18)) 0)))
(assert (= (+ it459 (- 20)) 0))
(assert (= (+ (* it453 (- 1)) it460 (- 2)) 0))
(assert (= (+ (* it454 (- 1)) it461) 0))
(assert (= (+ (* it455 (- 1)) it462) 0))
(assert (= it463 0))
(assert (= (+ (* it457 (- 1)) it464) 0))
(assert (= (+ (* it458 (- 1)) it465) 0))
(assert (and (<= (+ (* it463 2) it464 (* it462 (- 1)) 3) 0) (= (+ it459 (- 20)) 0)))
(assert (= (+ it466 (- 21)) 0))
(assert (= (+ (* it460 (- 1)) it467 (- 1)) 0))
(assert (= (+ (* it461 (- 1)) it468) 0))
(assert (= (+ it469 (* it462 (- 1))) 0))
(assert (= (+ (* it463 (- 1)) it470) 0))
(assert (= (+ (* it464 (- 1)) it471) 0))
(assert (= (+ it472 (* it465 (- 1))) 0))
(assert (and (= (+ it466 (- 21)) 0) (< (+ (* it469 (- 1)) (* it470 2) it471 3) 0)))
(assert (= (+ it562 (- 24)) 0))
(assert (= (+ (* it467 (- 1)) it563 (- 1)) 0))
(assert (= (+ it564 (* it468 (- 1))) 0))
(assert (= (+ (* it469 (- 1)) it565) 0))
(assert (= (+ (* it470 (- 1)) it566) 0))
(assert (= (+ it567 (* it471 (- 1))) 0))
(assert (= (+ (* it472 (- 1)) it568) 0))
(assert (= (+ it562 (- 24)) 0))
(assert (= (+ it569 (- 26)) 0))
(assert (= (+ it570 (* it563 (- 1)) (- 2)) 0))
(assert (= (+ (* it564 (- 1)) it571) 0))
(assert (= (+ (* it565 (- 1)) it572) 0))
(assert (= (+ it573 (* it566 (- 1))) 0))
(assert (= (+ (* it567 (- 1)) it574) 0))
(assert (= (+ it575 (* it566 (- 2)) (- 2)) 0))
(assert (= (+ it569 (- 26)) 0))
(assert (= (+ it576 (- 20)) 0))
(assert (= (+ (* it570 (- 1)) it577 (- 1)) 0))
(assert (= (+ (* it571 (- 1)) it578) 0))
(assert (= (+ it579 (* it572 (- 1))) 0))
(assert (= (+ it580 (* it572 (- 1))) 0))
(assert (= (+ (* it574 (- 1)) it581) 0))
(assert (= (+ (* it575 (- 1)) it582) 0))
(assert (let ((a!1 (+ (+ 0 it579)
              (* (exp 2 (+ it316 (- 1))) (+ 0 it580) (+ 0 (- 2)))
              (+ 0 (* it581 (- 1)))
              (* (exp 2 it316) (+ 0 (- 2)))
              (+ 0 1))))
  (and (>= (+ it579 (* it580 (- 2)) (* it581 (- 1)) (- 3)) 0)
       (> a!1 (+ 0 0))
       (>= a!1 (+ 0 0))
       (>= (+ it316 (- 1)) 0)
       (> (+ it579 (* it580 (- 2)) (* it581 (- 1)) (- 3)) 0)
       (>= (+ (* it576 (- 1)) 20) 0)
       (>= (+ it576 (- 20)) 0))))
(check-sat)
